(declare-fun temp2098_1 () (_ BitVec 64))
(declare-fun temp2098_2 () (_ BitVec 64))
(declare-fun temp2098_3 () (_ BitVec 64))
(declare-fun ARGNAME_y_NAMEEND_DIMSIZE () (Array (_ BitVec 64) (_ BitVec 64)))
(declare-fun temp2098_4 () (_ BitVec 64))
(declare-fun temp2098_5 () (_ BitVec 64))
(declare-fun temp2098_6 () (_ BitVec 64))
(declare-fun temp2098_7 () (_ BitVec 64))
(declare-fun temp2098_8 () (_ BitVec 64))
(declare-fun temp2098_9 () (_ BitVec 64))
(declare-fun temp2098_10 () (_ BitVec 64))
(declare-fun temp2098_11 () (_ BitVec 64))
(declare-fun temp2098_12 () (_ BitVec 64))
(declare-fun temp2098_13 () (_ BitVec 64))
(declare-fun temp2098_14 () (_ BitVec 64))
(declare-fun temp2098_15 () (_ BitVec 64))
(declare-fun temp2098_16 () (_ BitVec 64))
(declare-fun temp2098_17 () (_ BitVec 64))
(declare-fun temp2098_18 () (_ BitVec 64))
(declare-fun temp2098_19 () (_ BitVec 64))
(declare-fun temp2098_20 () (_ BitVec 64))
(declare-fun var66228 () (_ BitVec 64))
(declare-fun ARGNAME_y_NAMEEND_DIM () (_ BitVec 64))
(declare-fun temp2098_21 () (_ BitVec 64))
(declare-fun var66232 () (_ BitVec 64))
(declare-fun temp2098_22 () (_ BitVec 64))
(declare-fun temp2098_23 () (_ BitVec 64))
(declare-fun var66235 () (_ BitVec 64))
(declare-fun k!0 () (_ BitVec 64))
(declare-fun k!1 () Bool)
(declare-fun temp2098_24 () (_ BitVec 64))
(declare-fun ARGNAME_x_NAMEEND_DIM () (_ BitVec 64))
(declare-fun var66276 () (_ BitVec 64))
(declare-fun temp2098_25 () (_ BitVec 64))
(declare-fun var66381 () (_ BitVec 64))
(declare-fun temp2098_26 () (_ BitVec 64))
(declare-fun temp2098_28 () (_ BitVec 64))
(declare-fun temp2098_27 () (_ BitVec 64))
(declare-fun temp2098_30 () (_ BitVec 64))
(declare-fun temp2098_29 () (_ BitVec 64))
(declare-fun temp2098_31 () (_ BitVec 64))
(declare-fun var1180966 () (_ BitVec 64))
(declare-fun temp2098_33 () (_ BitVec 64))
(declare-fun temp2098_32 () (_ BitVec 64))
(declare-fun temp2098_34 () (_ BitVec 64))
(declare-fun var1705254 () (_ BitVec 64))
(declare-fun temp2098_35 () (_ BitVec 64))
(declare-fun var1705302 () (_ BitVec 64))
(declare-fun temp2098_36 () (_ BitVec 64))
(assert (= temp2098_1 #x0000000000000000))
(assert (= temp2098_2 temp2098_1))
(assert (= temp2098_3 (select ARGNAME_y_NAMEEND_DIMSIZE temp2098_2)))
(assert (= temp2098_4 #x0000000000000001))
(assert (= temp2098_5 temp2098_4))
(assert (= temp2098_6 (select ARGNAME_y_NAMEEND_DIMSIZE temp2098_5)))
(assert (= temp2098_7 #x0000000000000002))
(assert (= temp2098_8 temp2098_7))
(assert (= temp2098_9 (select ARGNAME_y_NAMEEND_DIMSIZE temp2098_8)))
(assert (= temp2098_10 #x0000000000000003))
(assert (= temp2098_11 temp2098_10))
(assert (= temp2098_12 (select ARGNAME_y_NAMEEND_DIMSIZE temp2098_11)))
(assert (= temp2098_13 #x0000000000000004))
(assert (= temp2098_14 temp2098_13))
(assert (= temp2098_15 (select ARGNAME_y_NAMEEND_DIMSIZE temp2098_14)))
(assert (= temp2098_16 #x0000000000000005))
(assert (= temp2098_17 temp2098_16))
(assert (= temp2098_18 (select ARGNAME_y_NAMEEND_DIMSIZE temp2098_17)))
(assert (= temp2098_19 #x0000000000000000))
(assert (= temp2098_20
   (ite (bvslt var66228 temp2098_19)
        (bvadd ARGNAME_y_NAMEEND_DIM var66228)
        var66228)))
(assert (= temp2098_21 (select ARGNAME_y_NAMEEND_DIMSIZE temp2098_20)))
(assert (= var66232 temp2098_21))
(assert (bvslt (ite (bvslt var66228 temp2098_19)
            (bvadd ARGNAME_y_NAMEEND_DIM var66228)
            var66228)
       ARGNAME_y_NAMEEND_DIM))
(assert (= temp2098_22 #x0000000000000000))
(assert (= var66235
   (ite (= var66232 temp2098_22) #x0000000000000001 #x0000000000000000)))
(assert (= temp2098_23 #x0000000000000000))
(assert (= var66235 temp2098_23))
(assert (= temp2098_24 #x0000000000000001))
(assert (= var66276
   (ite (= ARGNAME_x_NAMEEND_DIM temp2098_24)
        #x0000000000000001
        #x0000000000000000)))
(assert (= temp2098_25 #x0000000000000000))
(assert (= var66276 temp2098_25))
(assert (= var66381
   (ite (bvslt ARGNAME_x_NAMEEND_DIM ARGNAME_y_NAMEEND_DIM)
        #x0000000000000001
        #x0000000000000000)))
(assert (= temp2098_26 #x0000000000000001))
(assert (= var66381 temp2098_26))
(assert (= temp2098_28 #x0000000000000000))
(assert (= temp2098_27 temp2098_28))
(assert (= temp2098_30 #xffffffffffffffff))
(assert (= temp2098_29 temp2098_30))
(assert (= temp2098_31 #x0000000000000001))
(assert (= var1180966 temp2098_31))
(assert (= temp2098_33 #x0000000000000001))
(assert (= temp2098_32 temp2098_33))
(assert (= temp2098_34 #x0000000000000001))
(assert (= var1705254 temp2098_34))
(assert (= temp2098_35 #x0000000000000000))
(assert (= var1705302 temp2098_35))
(assert (= temp2098_36 #x0000000000000000))
(assert (= var1705302 temp2098_36))
(model-add temp2098_1 () (_ BitVec 64) #x0000000000000000)
(model-add temp2098_2 () (_ BitVec 64) #x0000000000000000)
(model-add temp2098_3
           ()
           (_ BitVec 64)
           (select ARGNAME_y_NAMEEND_DIMSIZE #x0000000000000000))
(model-add temp2098_4 () (_ BitVec 64) #x0000000000000001)
(model-add temp2098_5 () (_ BitVec 64) #x0000000000000001)
(model-add temp2098_6
           ()
           (_ BitVec 64)
           (select ARGNAME_y_NAMEEND_DIMSIZE #x0000000000000001))
(model-add temp2098_7 () (_ BitVec 64) #x0000000000000002)
(model-add temp2098_8 () (_ BitVec 64) #x0000000000000002)
(model-add temp2098_9
           ()
           (_ BitVec 64)
           (select ARGNAME_y_NAMEEND_DIMSIZE #x0000000000000002))
(model-add temp2098_10 () (_ BitVec 64) #x0000000000000003)
(model-add temp2098_11 () (_ BitVec 64) #x0000000000000003)
(model-add temp2098_12
           ()
           (_ BitVec 64)
           (select ARGNAME_y_NAMEEND_DIMSIZE #x0000000000000003))
(model-add temp2098_13 () (_ BitVec 64) #x0000000000000004)
(model-add temp2098_14 () (_ BitVec 64) #x0000000000000004)
(model-add temp2098_15
           ()
           (_ BitVec 64)
           (select ARGNAME_y_NAMEEND_DIMSIZE #x0000000000000004))
(model-add temp2098_16 () (_ BitVec 64) #x0000000000000005)
(model-add temp2098_17 () (_ BitVec 64) #x0000000000000005)
(model-add temp2098_18
           ()
           (_ BitVec 64)
           (select ARGNAME_y_NAMEEND_DIMSIZE #x0000000000000005))
(model-add temp2098_19 () (_ BitVec 64) #x0000000000000000)
(model-add temp2098_20
           ()
           (_ BitVec 64)
           (ite (bvsle #x0000000000000000 var66228)
                var66228
                (bvadd ARGNAME_y_NAMEEND_DIM var66228)))
(model-add temp2098_21
           ()
           (_ BitVec 64)
           (select ARGNAME_y_NAMEEND_DIMSIZE
                   (ite (bvsle #x0000000000000000 var66228)
                        var66228
                        (bvadd ARGNAME_y_NAMEEND_DIM var66228))))
(model-add var66232
           ()
           (_ BitVec 64)
           (select ARGNAME_y_NAMEEND_DIMSIZE
                   (ite (bvsle #x0000000000000000 var66228)
                        var66228
                        (bvadd ARGNAME_y_NAMEEND_DIM var66228))))
(model-add temp2098_22 () (_ BitVec 64) #x0000000000000000)
(model-add temp2098_23 () (_ BitVec 64) #x0000000000000000)
(model-add var66235 () (_ BitVec 64) #x0000000000000000)
(model-del k!0)
(model-add ARGNAME_y_NAMEEND_DIMSIZE
           ()
           (Array (_ BitVec 64) (_ BitVec 64))
           ((as const (Array (_ BitVec 64) (_ BitVec 64))) k!0))
(model-del k!1)
(model-add k!0
           ()
           (_ BitVec 64)
           (ite k!1 #x0000000000000000 (bvnot #x0000000000000000)))




